3 
4  49 
5  14 30 50 
6  05 17 25 32 40 47 55 
7  02 10 17 25 32 40 47 55 
8  02 10 17 25 32 40 50 59 
9  07 14 22 29 37 44 52 59 
10  07 14 22 29 37 44 52 59 
11  07 14 22 29 37 44 52 59 
12  07 14 22 29 37 45 53 
13  01 08 16 23 31 38 46 53 
14  01 08 16 25 33 40 48 55 
15  03 10 18 25 33 40 48 55 
16  03 10 18 25 33 40 48 55 
17  03 10 18 25 33 40 48 55 
18  03 10 18 25 33 40 48 55 
19  03 10 18 26 33 40 48 55 
20  03 10 18 25 33 40 48 55 
21  10 25 40 55 
22  11 26 41 56 
23  11 
0 
